<?xml version = "1.0" standalone="yes"?>
<!-- This file has been generated by DOcplex version 2.23.222  -->
<CPLEXSolution version="1.0">
 <header
   problemName="CVRP"
   objectiveValue="17285.1"
  />
 <variables>
  <variable name="x_0_1" index="0" value="1.00000"/>
  <variable name="x_0_2" index="1" value="1.00000"/>
  <variable name="x_0_3" index="2" value="1.00000"/>
  <variable name="x_0_5" index="4" value="1.00000"/>
  <variable name="x_0_6" index="5" value="1.00000"/>
  <variable name="x_0_7" index="6" value="1.00000"/>
  <variable name="x_0_8" index="7" value="1.00000"/>
  <variable name="x_0_9" index="8" value="1.00000"/>
  <variable name="x_0_10" index="9" value="1.00000"/>
  <variable name="x_0_12" index="11" value="1.00000"/>
  <variable name="x_0_18" index="17" value="1.00000"/>
  <variable name="x_0_23" index="22" value="1.00000"/>
  <variable name="x_0_24" index="23" value="1.00000"/>
  <variable name="x_0_25" index="24" value="1.00000"/>
  <variable name="x_1_16" index="41" value="1.00000"/>
  <variable name="x_2_14" index="65" value="1.00000"/>
  <variable name="x_3_0" index="78" value="1.00000"/>
  <variable name="x_4_0" index="104" value="1.00000"/>
  <variable name="x_5_22" index="151" value="1.00000"/>
  <variable name="x_6_0" index="156" value="1.00000"/>
  <variable name="x_7_0" index="182" value="1.00000"/>
  <variable name="x_8_11" index="218" value="1.00000"/>
  <variable name="x_9_13" index="246" value="1.00000"/>
  <variable name="x_10_21" index="280" value="1.00000"/>
  <variable name="x_11_0" index="286" value="1.00000"/>
  <variable name="x_12_0" index="312" value="1.00000"/>
  <variable name="x_13_0" index="338" value="1.00000"/>
  <variable name="x_14_0" index="364" value="1.00000"/>
  <variable name="x_15_26" index="415" value="1.00000"/>
  <variable name="x_16_17" index="432" value="1.00000"/>
  <variable name="x_17_15" index="457" value="1.00000"/>
  <variable name="x_18_0" index="468" value="1.00000"/>
  <variable name="x_19_0" index="494" value="1.00000"/>
  <variable name="x_20_0" index="520" value="1.00000"/>
  <variable name="x_21_20" index="566" value="1.00000"/>
  <variable name="x_22_0" index="572" value="1.00000"/>
  <variable name="x_23_4" index="602" value="1.00000"/>
  <variable name="x_24_19" index="643" value="1.00000"/>
  <variable name="x_25_0" index="650" value="1.00000"/>
  <variable name="x_26_0" index="676" value="1.00000"/>
  <variable name="u_1" index="702" value="2.00000"/>
  <variable name="u_2" index="703" value="14.00000"/>
  <variable name="u_3" index="704" value="20.00000"/>
  <variable name="u_4" index="705" value="24.00000"/>
  <variable name="u_5" index="706" value="15.00000"/>
  <variable name="u_6" index="707" value="20.00000"/>
  <variable name="u_7" index="708" value="24.00000"/>
  <variable name="u_8" index="709" value="17.00000"/>
  <variable name="u_9" index="710" value="10.00000"/>
  <variable name="u_10" index="711" value="9.00000"/>
  <variable name="u_11" index="712" value="24.00000"/>
  <variable name="u_12" index="713" value="21.00000"/>
  <variable name="u_13" index="714" value="24.00000"/>
  <variable name="u_14" index="715" value="21.00000"/>
  <variable name="u_15" index="716" value="10.00000"/>
  <variable name="u_16" index="717" value="8.00000"/>
  <variable name="u_17" index="718" value="9.00000"/>
  <variable name="u_18" index="719" value="19.00000"/>
  <variable name="u_19" index="720" value="24.00000"/>
  <variable name="u_20" index="721" value="24.00000"/>
  <variable name="u_21" index="722" value="11.00000"/>
  <variable name="u_22" index="723" value="24.00000"/>
  <variable name="u_23" index="724" value="5.00000"/>
  <variable name="u_24" index="725" value="16.00000"/>
  <variable name="u_25" index="726" value="23.00000"/>
  <variable name="u_26" index="727" value="20.00000"/>
 </variables>
</CPLEXSolution>
